Traveling Salesman Problem/TSP_generados/Aleatorio1621103585_16.tsp
NAME: Aleatorio1621103585_16.tsp
COMMENT: Randomly generated scenario
TYPE: TSP
DIMENSION: 16
EDGE_WEIGHT_TYPE: ATT
NODE_COORD_SECTION
1 35.23 27.2
2 20.16 0.61
3 37.33 34.28
4 31.9 0.98
5 3.77 8.71
6 27.78 22.09
7 44.2 32.36
8 49.45 37.15
9 43.57 24.05
10 16.47 12.28
11 39.16 8.05
12 2.74 27.95
13 11.38 36.77
14 34.87 32.8
15 2.28 46.0
16 30.4 35.99
