Traveling Salesman Problem/TSP_generados/Aleatorio1621103585_16.opt.tour
NAME: Aleatorio1621103585_16.opt.tour
COMMENT: Optimal solution for Aleatorio1621103585_16 (188.91243650210623)
TYPE: TOUR
DIMENSION: 16
TOUR_SECTION
1 6 11 4 2 10 5 12 15 13 16 14 3 8 7 9
-1
EOF
